c Sudoku solution
p cnf 729 0
145 0
153 0
235 0
276 0
341 0
359 0
375 0
393 0
464 0
571 0
586 0
594 0
611 0
451 0
643 0
657 0
678 0
738 0
784 0
174 0
821 0
131 0
898 0
934 0
624 0
314 0
947 0
979 0
982 0
472 0
483 0
497 0
281 0
991 0
796 0
885 0
761 0
689 0
695 0
533 0
527 0
662 0
446 0
439 0
636 0
512 0
267 0
958 0
856 0
844 0
832 0
337 0
187 0
388 0
322 0
192 0
299 0
366 0
168 0
242 0
254 0
749 0
752 0
965 0
863 0
819 0
717 0
725 0
773 0
877 0
415 0
428 0
218 0
223 0
913 0
926 0
116 0
129 0
548 0
555 0
569 0
